p cnf 21 11
e 1 0
a 2 0
e 3 4 5 6 7 0
a 8 0
e 9 10 11 0
a 12 13 14 15 16 17 0
e 18 0
a 19 0
e 20 0
a 21 0
11 -17 -2 -8 0
-21 18 2 -19 0
6 7 -15 -14 -2 0
18 7 -9 -2 0
-12 7 3 0
-19 -5 -15 0
-15 21 10 1 0
-3 2 10 18 0
-13 14 17 4 -8 0
1 12 0
2 -15 -11 0
